--- Job TestLoop3.gms Start 06/24/21 12:25:42 32.2.0 rc62c018 WEX-WEI x86 64bit/MS Windows
--- Applying:
    C:\GAMS\32\gmsprmNT.txt
--- GAMS Parameters defined
    Input C:\Users\charl\OneDrive\Dokumente\6.Semester\Bachelor-Arbeit\bachelor-thesis\bachelor-thesis\SampleRun_Environment\600Scens\tol01\Scenario6\TestLoop3.gms
    PageSize 0
    ScrDir C:\Users\charl\OneDrive\Dokumente\6.Semester\Bachelor-Arbeit\bachelor-thesis\bachelor-thesis\SampleRun_Environment\600Scens\tol01\Scenario6\225d\
    SysDir C:\GAMS\32\
    LogOption 3
    ErrMsg 1
    ErrorLog 99
    IDE 1
    LstTitleLeftAligned 1
GAMS 32.2.0   Copyright (C) 1987-2020 GAMS Development. All rights reserved
Licensee: Small MUD - 5 User License                     S200323/0001AN-GEN
          Friedrich-Alexander-Universitaet Erlangen-Nurnberg         DC7699
          C:\GAMS\32\gamslice.txt
--- Starting compilation
--- TestLoop3.gms(19) 2 Mb
--- . inputME.gms(14) 3 Mb
--- .. solar_scenarios_600_6.csv(601) 3 Mb
--- . inputME.gms(36) 3 Mb
--- .. scenario_sorted_600_6_01.csv(601) 3 Mb
--- . inputME.gms(116) 3 Mb
--- .. battery_revenue.csv(25) 3 Mb
--- . inputME.gms(185) 3 Mb
--- TestLoop3.gms(20) 3 Mb
--- . subgradient_parameters.gms(33) 3 Mb
--- TestLoop3.gms(22) 3 Mb
--- . equations_all.gms(76) 3 Mb
--- TestLoop3.gms(71) 3 Mb
--- . lp_lowerbound.gms(12) 3 Mb
--- TestLoop3.gms(72) 3 Mb
--- . heuristic_upperbound.gms(59) 3 Mb
--- TestLoop3.gms(107) 3 Mb
--- . plain_lr.gms(12) 3 Mb
--- TestLoop3.gms(113) 3 Mb
--- . LR_updatesMe.gms(17) 3 Mb
--- .. stepsize3.gms(21) 3 Mb
--- . LR_updatesMe.gms(42) 3 Mb
--- TestLoop3.gms(142) 3 Mb
--- Starting execution: elapsed 0:00:00.184
--- TestLoop3.gms(1559) 8 Mb
--- Generating MIP model schedule
--- TestLoop3.gms(1494) 8 Mb
--- Starting Equ Objective: elapsed 0:00:00.271
--- TestLoop3.gms(1496) 9 Mb
--- Starting Equ Const1: elapsed 0:00:00.586
--- TestLoop3.gms(1502) 18 Mb
--- Starting Equ Const_chance_1: elapsed 0:00:00.623
--- TestLoop3.gms(1509) 23 Mb
--- Starting Equ Const_chance_2: elapsed 0:00:00.654
--- TestLoop3.gms(1560) 23 Mb
---   28,202 rows  43,825 columns  127,825 non-zeroes
---   600 discrete-columns
--- Executing CPLEX (Solvelink=2): elapsed 0:00:00.790

IBM ILOG CPLEX   32.2.0 rc62c018 Released Aug 26, 2020 WEI x86 64bit/MS Window
--- GAMS/Cplex Link licensed for continuous and discrete problems.
Cplex 12.10.0.0

Reading data...
Starting Cplex...
Space for names approximately 1.78 Mb
Use option 'names no' to turn use of names off
Version identifier: 12.10.0.0 | 2019-11-26 | 843d4de2ae
CPXPARAM_Advance                                 0
CPXPARAM_Threads                                 8
CPXPARAM_Parallel                                1
CPXPARAM_MIP_Display                             4
CPXPARAM_TimeLimit                               4200
CPXPARAM_Tune_TimeLimit                          840
CPXPARAM_MIP_Tolerances_AbsMIPGap                0.001
CPXPARAM_MIP_Tolerances_MIPGap                   0.001
CPXPARAM_WorkDir                                 "C:\Users\charl\OneDrive\Dokumente\6.Semester\Bachelor-Arbeit\bachelor-thesis\bachelor-thesis\SampleRun_Environment\600Scens\tol01\Scenario6\225d\"
Found incumbent of value 0.000000 after 0.00 sec. (1.77 ticks)
Tried aggregator 1 time.
MIP Presolve eliminated 1 rows and 1801 columns.
MIP Presolve modified 2 coefficients.
Reduced MIP has 28201 rows, 42024 columns, and 111600 nonzeros.
Reduced MIP has 600 binaries, 0 generals, 0 SOSs, and 0 indicators.
Presolve time = 0.11 sec. (48.39 ticks)
Probing time = 0.09 sec. (21.46 ticks)
Cover probing fixed 1 vars, tightened 23 bounds.
Tried aggregator 1 time.
Detecting symmetries...
MIP Presolve eliminated 600 rows and 1 columns.
MIP Presolve modified 246 coefficients.
Reduced MIP has 27601 rows, 42023 columns, and 110400 nonzeros.
Reduced MIP has 600 binaries, 0 generals, 0 SOSs, and 0 indicators.
Presolve time = 0.20 sec. (64.65 ticks)
Probing time = 0.05 sec. (1.84 ticks)
MIP emphasis: balance optimality and feasibility.
MIP search method: dynamic search.
Parallel mode: deterministic, using up to 8 threads.
Parallel mode: deterministic, using up to 2 threads for parallel tasks at root LP.
Parallel mode: deterministic, using up to 6 threads for concurrent optimization:
 * Starting dual Simplex on 1 thread...
 * Starting Barrier on 4 threads...
 * Starting primal Simplex on 1 thread...

Root node processing (before b&c):
  Real time             =    0.86 sec. (230.64 ticks)
Parallel b&c, 8 threads:
  Real time             =    0.00 sec. (0.00 ticks)
  Sync time (average)   =    0.00 sec.
  Wait time (average)   =    0.00 sec.
                          ------------
Total (root+branch&cut) =    0.86 sec. (230.64 ticks)
MIP status(113): aborted
Cplex Time: 0.86sec (det. 230.77 ticks)
Fixing integer variables, and solving final LP...
Version identifier: 12.10.0.0 | 2019-11-26 | 843d4de2ae
CPXPARAM_Advance                                 2
CPXPARAM_Threads                                 8
CPXPARAM_Parallel                                1
CPXPARAM_MIP_Display                             4
CPXPARAM_TimeLimit                               4200
CPXPARAM_Tune_TimeLimit                          840
CPXPARAM_MIP_Tolerances_AbsMIPGap                0.001
CPXPARAM_MIP_Tolerances_MIPGap                   0.001
CPXPARAM_WorkDir                                 "C:\Users\charl\OneDrive\Dokumente\6.Semester\Bachelor-Arbeit\bachelor-thesis\bachelor-thesis\SampleRun_Environment\600Scens\tol01\Scenario6\225d\"
Parallel mode: deterministic, using up to 8 threads for concurrent optimization:
 * Starting dual Simplex on 1 thread...
 * Starting Barrier on 6 threads...
 * Starting primal Simplex on 1 thread...
Tried aggregator 1 time.
Presolve time = 0.23 sec. (42.53 ticks)
Fixed MIP status(13): user aborted
Cplex Time: 0.27sec (det. 140.30 ticks)
Rerunning with presolve turned off and solving with LPMETHOD=1
Version identifier: 12.10.0.0 | 2019-11-26 | 843d4de2ae
CPXPARAM_Advance                                 2
CPXPARAM_Preprocessing_Presolve                  0
CPXPARAM_LPMethod                                1
CPXPARAM_Threads                                 8
CPXPARAM_Parallel                                1
CPXPARAM_MIP_Display                             4
CPXPARAM_TimeLimit                               4200
CPXPARAM_Tune_TimeLimit                          840
CPXPARAM_MIP_Tolerances_AbsMIPGap                0.001
CPXPARAM_MIP_Tolerances_MIPGap                   0.001
CPXPARAM_WorkDir                                 "C:\Users\charl\OneDrive\Dokumente\6.Semester\Bachelor-Arbeit\bachelor-thesis\bachelor-thesis\SampleRun_Environment\600Scens\tol01\Scenario6\225d\"
Primal superbasis not built.
Using devex.
Fixed MIP status(13): user aborted
Cplex Time: 0.03sec (det. 17.47 ticks)
Final solve did not return an optimal solution.
Returning a primal only solution to GAMS (marginals all set to NA).

Problem aborted.

MIP Solution:            0.000000    (0 iterations, 0 nodes)
Best possible:        -465.238000
Absolute gap:          465.238000
Relative gap:            1.000000

--- Reading solution for model schedule
***
*** Solver did not provide marginals for model schedule
***
--- Executing after solve: elapsed 0:00:02.289
--- TestLoop3.gms(1595) 23 Mb
--- Generating RMIP model schedule
--- TestLoop3.gms(1494) 23 Mb
--- Starting Equ Objective: elapsed 0:00:02.289
--- TestLoop3.gms(1496) 23 Mb
--- Starting Equ Const1: elapsed 0:00:02.609
*** Error at line 1494: Execution halted: Triggered by pending CtrlC event
--- TestLoop3.gms(1596) 23 Mb 1 Error
*** SOLVE aborted
--- Putfile TestingFile3 C:\Users\charl\OneDrive\Dokumente\6.Semester\Bachelor-Arbeit\bachelor-thesis\bachelor-thesis\SampleRun_Environment\600Scens\tol01\Scenario6\TestingFile3.csv
--- Profile Summary (602 records processed)
     1.453   0.023GB      1560 Solve Alg  schedule
     0.313   0.009GB      1494 Equation   Objective (1)
     0.312   0.023GB      1494 Equation   Objective (1)
     0.125   0.023GB      1560 Solve Fini schedule (127825)
     0.063   0.005GB      1417 Loop       
     0.047   0.023GB      1560 Solve Read schedule
     0.031   0.018GB      1496 Equation   Const1 (13800)
     0.031   0.023GB      1502 Equation   Const_chance_1 (14400)
     0.016   0.023GB      1509 Equation   Const_chance_2 (1)
     0.016   0.005GB      1420 Assignment minsolar (0)
--- TestLoop3.gms(1596) 23 Mb 1 Error
*** Status: Execution error(s)
--- Job TestLoop3.gms Stop 06/24/21 12:25:45 elapsed 0:00:02.629
